<number of tasks>
50

<cycle time>
1000

<order strength>
0.598


<task times>
1 663
2 548
3 513
4 496
5 425
6 316
7 400
8 403
9 381
10 364
11 758
12 756
13 281
14 774
15 474
16 683
17 394
18 607
19 442
20 540
21 483
22 487
23 652
24 544
25 553
26 445
27 516
28 418
29 501
30 552
31 475
32 610
33 508
34 477
35 502
36 548
37 499
38 261
39 641
40 322
41 408
42 399
43 449
44 528
45 500
46 531
47 435
48 493
49 504
50 529

<precedence relations>
1,3
1,5
1,6
2,4
2,5
2,6
3,7
4,8
5,9
5,10
5,11
6,9
6,10
6,11
7,12
8,13
9,14
9,15
10,15
11,15
12,16
13,17
14,18
15,19
15,20
15,21
15,22
16,25
17,26
18,23
19,24
19,25
19,26
19,27
19,28
20,25
20,26
20,27
20,28
21,25
21,26
21,27
21,28
22,25
22,26
22,27
22,28
23,31
24,32
25,29
25,33
26,33
27,30
27,33
28,33
29,34
30,35
31,36
32,37
33,37
33,38
33,39
34,42
35,41
36,43
37,40
37,42
37,43
38,42
39,42
39,43
40,44
41,45
42,45
43,46
43,47
43,48
43,49
44,46
45,46
45,47
45,48
45,49
45,50

<end>
